\ This file has been generated by DOcplex
\ ENCODING=ISO-8859-1
\Problem name: random_problem.lp

Minimize
 obj: 10 x0 - 4 x2 + 7 x3 + 6 x4 - 10 x5 + 2 x6 - 5 x9 - 2 x10 - 5 x11 + 4 x12
      - 10 x13 + 4 x14 - 9 x15 + 7 x16 - 2 x17 + 8 x18 - 4 x19 + 2 x20 + 9 x22
      - 7 x23 - 5 x24 - 10 x25 + 6 x26 - 5 x27 + 9 x28 + 3 x29 - 2 x31 + 4 x32
      + x33 + 8 x34 - 9 x35 + x36 + 10 x37 + 4 x38 - 8 x39 + 3 x40 + x41
      - 10 x42 - x43 - 6 x44 + x45 + 8 x46 + 7 x47 - 9 x48 + 3 x49 + 5 x50
      + 6 x51 + x52 + 4 x53 - 3 x54 + x56 - 4 x57 + 4 x58 + 6 x59 + [ - 20 x0*x5
      - 18 x0*x13 + 8 x0*x14 + 2 x0*x22 + 2 x0*x34 - 12 x0*x35 + 18 x0*x48
      - 8 x0*x51 - 10 x0*x55 - 16 x0*x58 - 16 x1*x2 - 4 x1*x16 - 10 x1*x18
      - 12 x1*x27 - 8 x1*x31 + 16 x1*x40 + 18 x1*x49 + 2 x1*x52 + 14 x1*x56
      - 2 x1*x59 + 8 x2*x5 + 18 x2*x16 + 14 x2*x18 + 6 x2*x20 + 4 x2*x27
      + 12 x2*x41 + 8 x2*x43 + 8 x2*x53 + 12 x2*x54 + 16 x3*x4 + 18 x3*x14
      + 20 x3*x22 + 8 x3*x29 + 16 x3*x30 + 2 x3*x36 - 2 x3*x38 - 18 x3*x54
      + 10 x3*x55 + 4 x3*x59 - 10 x4*x6 - 8 x4*x10 - 6 x4*x18 + 8 x4*x20
      + 4 x4*x34 - 4 x4*x45 - 6 x4*x48 + 18 x4*x52 - 4 x4*x59 + 8 x5*x12
      + 8 x5*x15 - 10 x5*x21 + 20 x5*x23 - 16 x5*x27 + 20 x5*x30 + 10 x5*x37
      + 20 x5*x41 + 6 x6*x7 - 8 x6*x8 - 14 x6*x17 - 12 x6*x19 - 4 x6*x23
      + 14 x6*x26 + 4 x6*x28 - 18 x6*x32 + 14 x6*x43 - 10 x7*x11 + 8 x7*x13
      - 8 x7*x28 - 14 x7*x31 - 20 x7*x32 + 8 x7*x38 + 10 x7*x43 - 16 x7*x47
      - 6 x7*x51 - 2 x8*x11 + 16 x8*x13 + 20 x8*x26 - 8 x8*x31 - 8 x8*x37
      + 2 x8*x40 + 8 x8*x42 + 10 x8*x51 - 4 x8*x53 + 2 x9*x10 - 12 x9*x13
      - 8 x9*x20 - 16 x9*x22 + 10 x9*x30 - 18 x9*x36 + 16 x9*x39 + 16 x9*x46
      + 18 x9*x53 - 16 x9*x56 - 6 x10*x11 + 4 x10*x12 - 12 x10*x17 - 20 x10*x29
      - 16 x10*x37 - 20 x10*x39 + 18 x10*x48 - 20 x10*x59 + 18 x11*x12
      + 2 x11*x16 + 2 x11*x33 + 8 x11*x39 + 8 x11*x48 + 18 x11*x52 + 14 x11*x58
      - 16 x12*x18 + 18 x12*x21 - 4 x12*x26 - 2 x12*x40 + 2 x12*x42 - 2 x12*x56
      + 8 x12*x58 + 10 x13*x31 + 10 x13*x40 - 18 x13*x43 - 6 x13*x48 - 8 x13*x54
      - 10 x13*x55 - 10 x14*x18 - 18 x14*x21 - 2 x14*x24 + 14 x14*x27
      - 6 x14*x29 + 18 x14*x33 + 6 x14*x37 - 16 x14*x55 + 16 x15*x20 + 8 x15*x24
      - 6 x15*x43 - 16 x15*x44 + 4 x15*x52 - 10 x15*x56 + 4 x15*x57 + 4 x15*x58
      - 4 x15*x59 + 10 x16*x25 + 2 x16*x26 - 18 x16*x28 + 20 x16*x31
      + 16 x16*x44 + 2 x16*x46 - 4 x16*x54 - 10 x17*x24 + 16 x17*x26 - 4 x17*x32
      - 20 x17*x35 + 12 x17*x39 - 20 x17*x54 + 20 x17*x56 - 2 x17*x58
      - 20 x18*x19 - 14 x18*x25 - 16 x18*x37 - 2 x18*x46 - 20 x18*x53
      - 16 x19*x23 + 18 x19*x25 - 18 x19*x33 + 4 x19*x40 + 12 x19*x41
      - 16 x19*x42 - 8 x19*x43 + 14 x19*x54 + 14 x20*x32 - 8 x20*x50
      + 10 x20*x51 - 10 x20*x52 + 18 x20*x56 + 4 x20*x57 - 14 x21*x22
      - 14 x21*x24 - 16 x21*x30 + 18 x21*x40 - 20 x21*x47 - 18 x21*x52
      + 2 x21*x56 - 10 x22*x30 - 4 x22*x40 + 12 x22*x46 + 14 x22*x47 - 4 x22*x50
      + 18 x22*x58 - 12 x23*x25 + 8 x23*x28 - 4 x23*x30 + 6 x23*x42 - 8 x23*x44
      - 2 x23*x45 + 6 x23*x47 + 10 x24*x34 - 18 x24*x41 - 14 x24*x45
      - 12 x24*x46 + 6 x24*x57 - 12 x24*x59 + 4 x25*x27 - 6 x25*x32 - 2 x25*x40
      - 6 x25*x49 - 20 x25*x53 + 10 x25*x59 + 16 x26*x36 - 16 x26*x37
      - 4 x26*x38 - 12 x26*x41 - 10 x26*x46 - 12 x27*x30 + 6 x27*x31 - 4 x27*x41
      - 16 x27*x44 + 10 x27*x45 + 8 x28*x36 - 8 x28*x39 - 4 x28*x42 - 16 x28*x47
      + 2 x28*x48 + 16 x28*x58 + 10 x29*x35 + 20 x29*x38 - 8 x29*x39 - 4 x29*x45
      - 10 x29*x49 - 8 x29*x53 + 18 x29*x58 + 18 x30*x45 + 18 x30*x50
      + 10 x30*x56 + 16 x31*x38 - 2 x31*x43 + 14 x31*x47 - 16 x31*x51
      + 16 x32*x35 + 20 x32*x41 - 14 x32*x45 + 14 x32*x49 - 8 x32*x55
      - 16 x33*x40 + 16 x33*x43 + 4 x33*x46 + 4 x33*x47 - 6 x33*x48 + 10 x33*x49
      - 20 x33*x52 + 10 x34*x42 + 14 x34*x46 + 14 x34*x47 + 14 x34*x48
      - 16 x34*x49 + 16 x34*x50 + 8 x34*x51 + 16 x35*x38 + 2 x35*x42
      - 16 x35*x44 - 4 x35*x45 - 14 x35*x55 + 2 x35*x58 - 20 x36*x38
      - 10 x36*x42 - 2 x36*x44 - 2 x36*x45 - 18 x36*x57 + 6 x36*x58 + 8 x37*x42
      - 20 x37*x45 - 2 x37*x53 - 12 x37*x59 - 20 x38*x47 - 20 x38*x50
      - 10 x38*x52 - 12 x39*x43 - 4 x39*x51 + 18 x39*x54 + 8 x39*x57
      + 10 x40*x47 + 6 x41*x49 + 20 x41*x52 + 4 x41*x57 + 18 x42*x59
      + 14 x43*x54 - 12 x44*x48 - 10 x44*x49 + 18 x44*x50 + 18 x44*x53
      + 2 x46*x51 + 18 x46*x55 - 14 x48*x55 - 6 x49*x52 + 4 x49*x55 + 8 x50*x53
      + 14 x50*x55 - 14 x50*x57 + 10 x50*x59 + 18 x51*x54 - 4 x51*x57
      - 4 x53*x57 - 8 x54*x57 ]/2
Subject To
 c0: x1 + 2 x2 - x6 - x18 - 2 x36 - x39 + x40 + 2 x43 - 2 x47 - x56 = 1
 c1: x5 + 2 x13 - 2 x19 + 2 x20 - 2 x24 - x26 + 2 x27 + 2 x32 - x34 - x58 = -2
 c2: - x2 - x11 - x12 + 2 x19 + x38 + x41 - 2 x42 - x44 - x49 - 2 x56 = -1
 c3: x1 - 2 x9 + x11 + x13 + x15 - 2 x32 + 2 x41 + x51 + 2 x52 + x58 = -2
 c4: x11 + 2 x24 - 2 x28 - 2 x31 - 2 x34 + 2 x35 + 2 x41 + 2 x52 - x53 - x59 = 
     -2
 c5: - 2 x5 + 2 x6 + 2 x10 - 2 x13 + 2 x17 - x23 - 2 x25 - 2 x34 + 2 x44 + 2 x57
      = 1
 c6: 2 x6 + 2 x8 - 2 x15 + x16 + x18 + 2 x20 + 2 x32 + x44 + 2 x54 + 2 x58 = 1
 c7: 2 x2 - 2 x5 - 2 x9 - x12 + 2 x21 - x26 - x30 - x36 + x43 + x54 = -1
 c8: - x0 - 2 x1 - x3 + x8 - x10 - x29 + x42 - 2 x47 + 2 x49 - 2 x58 = -1
 c9: - x1 + 2 x10 - 2 x11 + 2 x19 + 2 x24 - 2 x33 - 2 x42 + x52 + 2 x55 + x58
      = -1
 c10: 2 x1 + 2 x5 + x19 + x31 - 2 x32 - 2 x44 - 2 x50 - x51 + 2 x57 + 2 x59 = 1
 c11: - 2 x0 + x1 + 2 x6 + 2 x20 + x22 - x39 - x43 - x46 - x56 + 2 x59 = 1

Bounds
 0 <= x0 <= 1
 0 <= x1 <= 1
 0 <= x2 <= 1
 0 <= x3 <= 1
 0 <= x4 <= 1
 0 <= x5 <= 1
 0 <= x6 <= 1
 0 <= x7 <= 1
 0 <= x8 <= 1
 0 <= x9 <= 1
 0 <= x10 <= 1
 0 <= x11 <= 1
 0 <= x12 <= 1
 0 <= x13 <= 1
 0 <= x14 <= 1
 0 <= x15 <= 1
 0 <= x16 <= 1
 0 <= x17 <= 1
 0 <= x18 <= 1
 0 <= x19 <= 1
 0 <= x20 <= 1
 0 <= x21 <= 1
 0 <= x22 <= 1
 0 <= x23 <= 1
 0 <= x24 <= 1
 0 <= x25 <= 1
 0 <= x26 <= 1
 0 <= x27 <= 1
 0 <= x28 <= 1
 0 <= x29 <= 1
 0 <= x30 <= 1
 0 <= x31 <= 1
 0 <= x32 <= 1
 0 <= x33 <= 1
 0 <= x34 <= 1
 0 <= x35 <= 1
 0 <= x36 <= 1
 0 <= x37 <= 1
 0 <= x38 <= 1
 0 <= x39 <= 1
 0 <= x40 <= 1
 0 <= x41 <= 1
 0 <= x42 <= 1
 0 <= x43 <= 1
 0 <= x44 <= 1
 0 <= x45 <= 1
 0 <= x46 <= 1
 0 <= x47 <= 1
 0 <= x48 <= 1
 0 <= x49 <= 1
 0 <= x50 <= 1
 0 <= x51 <= 1
 0 <= x52 <= 1
 0 <= x53 <= 1
 0 <= x54 <= 1
 0 <= x55 <= 1
 0 <= x56 <= 1
 0 <= x57 <= 1
 0 <= x58 <= 1
 0 <= x59 <= 1

Binaries
 x0 x1 x2 x3 x4 x5 x6 x7 x8 x9 x10 x11 x12 x13 x14 x15 x16 x17 x18 x19 x20 x21
 x22 x23 x24 x25 x26 x27 x28 x29 x30 x31 x32 x33 x34 x35 x36 x37 x38 x39 x40 x41
 x42 x43 x44 x45 x46 x47 x48 x49 x50 x51 x52 x53 x54 x55 x56 x57 x58 x59
End
